
n_res = 8;
rcap = [87, 76, 74, 80, 1695, 1691, 1729, 1663];
rtype = [1, 1, 1, 1, 2, 2, 2, 2];
n_tasks = 100;
modes =  [{1, 2, 3}, {4, 5, 6}, {7, 8, 9}, {10, 11, 12}, {13, 14, 15}, {16, 17, 18}, {19, 20, 21}, {22, 23, 24}, {25, 26, 27}, {28, 29, 30}, {31, 32, 33}, {34, 35, 36}, {37, 38, 39}, {40, 41, 42}, {43, 44, 45}, {46, 47, 48}, {49, 50, 51}, {52, 53, 54}, {55, 56, 57}, {58, 59, 60}, {61, 62, 63}, {64, 65, 66}, {67, 68, 69}, {70, 71, 72}, {73, 74, 75}, {76, 77, 78}, {79, 80, 81}, {82, 83, 84}, {85, 86, 87}, {88, 89, 90}, {91, 92, 93}, {94, 95, 96}, {97, 98, 99}, {100, 101, 102}, {103, 104, 105}, {106, 107, 108}, {109, 110, 111}, {112, 113, 114}, {115, 116, 117}, {118, 119, 120}, {121, 122, 123}, {124, 125, 126}, {127, 128, 129}, {130, 131, 132}, {133, 134, 135}, {136, 137, 138}, {139, 140, 141}, {142, 143, 144}, {145, 146, 147}, {148, 149, 150}, {151, 152, 153}, {154, 155, 156}, {157, 158, 159}, {160, 161, 162}, {163, 164, 165}, {166, 167, 168}, {169, 170, 171}, {172, 173, 174}, {175, 176, 177}, {178, 179, 180}, {181, 182, 183}, {184, 185, 186}, {187, 188, 189}, {190, 191, 192}, {193, 194, 195}, {196, 197, 198}, {199, 200, 201}, {202, 203, 204}, {205, 206, 207}, {208, 209, 210}, {211, 212, 213}, {214, 215, 216}, {217, 218, 219}, {220, 221, 222}, {223, 224, 225}, {226, 227, 228}, {229, 230, 231}, {232, 233, 234}, {235, 236, 237}, {238, 239, 240}, {241, 242, 243}, {244, 245, 246}, {247, 248, 249}, {250, 251, 252}, {253, 254, 255}, {256, 257, 258}, {259, 260, 261}, {262, 263, 264}, {265, 266, 267}, {268, 269, 270}, {271, 272, 273}, {274, 275, 276}, {277, 278, 279}, {280, 281, 282}, {283, 284, 285}, {286, 287, 288}, {289, 290, 291}, {292, 293, 294}, {295, 296, 297}, {298, 299, 300}];
succ =  [{29, 24, 20, 19, 13, 12, 10, 8}, {26, 23, 20, 19, 18, 17, 10}, {29, 25, 22, 20, 19, 8}, {35, 34, 33, 31, 29, 27, 26, 23, 21, 17}, {31, 26, 21, 18, 17, 10}, {34, 33, 27, 25, 22, 21, 20, 18}, {31, 8}, {38, 35, 34, 33, 27, 26, 21, 18}, {35, 32, 31, 27, 26, 17}, {35, 34, 33, 32, 28, 27, 25, 22}, {35, 27, 22, 21, 19}, {38, 35, 33, 32, 31, 30, 18}, {35, 33, 32, 26, 25, 23}, {35, 34, 32, 31, 27, 23}, {38, 35, 26, 25, 23}, {40, 39, 35, 32, 30, 23}, {37, 28, 25, 22}, {48, 44, 40, 39, 37, 36, 28}, {48, 44, 40, 38, 37, 36, 28}, {37, 36, 31, 28}, {46, 45, 43, 36, 32}, {48, 44, 43, 42, 41, 40, 39, 38, 36}, {48, 44, 36, 28}, {57, 48, 45, 44, 43, 40, 39, 37, 36}, {41, 39, 30}, {57, 53, 48, 47, 46, 45, 44, 40, 39, 37}, {57, 43, 30}, {51, 47, 46, 45, 43, 42, 41}, {48, 44, 42, 41, 36}, {49, 48, 47, 46, 45, 44, 42}, {53, 49, 48, 46, 45, 44, 39}, {62, 48, 44, 42, 41, 37}, {51, 48, 41, 36}, {55, 53, 47, 44, 43, 40}, {61, 57, 55, 54, 53, 52, 51, 47}, {54, 53, 52, 49, 47}, {55, 52, 51, 50, 49}, {67, 64, 63, 61, 60, 57, 56, 54, 53, 52}, {63, 62, 61, 60, 58, 56, 55, 54, 52}, {67, 63, 62, 61, 60, 58, 56, 54, 52}, {60, 57, 55, 52, 50}, {68, 65, 63, 60, 59, 56, 55, 53}, {71, 68, 65, 64, 59, 56, 49}, {64, 61, 52, 51, 50}, {67, 65, 63, 61, 60, 58, 56, 52}, {63, 62, 61, 60, 58, 54, 52}, {71, 62, 60, 58, 50}, {68, 65, 63, 60, 56, 55}, {67, 63, 61, 60, 58}, {67, 65, 63, 56}, {80, 76, 73, 71, 69, 68, 67, 59}, {80, 76, 73, 71, 69, 68, 59}, {80, 71, 70, 58}, {82, 80, 75, 73, 72, 68, 65}, {80, 76, 69, 67, 64}, {78, 76, 72, 70, 69, 66}, {66, 65}, {76, 72, 66}, {85, 78, 75, 72, 70}, {78, 72, 70, 69}, {78, 75, 70, 69}, {82, 78, 73, 70}, {90, 86, 84, 83, 80, 79, 78, 77, 74, 73}, {84, 83, 82, 78, 77, 75, 74, 73}, {78, 70, 69}, {84, 83, 82, 77, 75, 74, 73}, {85, 78, 70}, {85, 78, 70}, {90, 86, 85, 84, 83, 79, 77, 74}, {90, 86, 84, 83, 79, 77, 74}, {95, 93, 90, 86, 85, 84, 81, 78, 77}, {86, 79, 74}, {99, 93, 92, 87, 85, 81}, {99, 95, 93, 87, 81}, {93, 90, 89, 88, 79}, {84, 83, 79}, {100, 99, 97, 89, 88, 87}, {100, 99, 97, 92, 91, 87}, {100, 99, 92, 91, 87}, {99, 97, 87, 85}, {100, 94, 91, 88}, {99, 98, 95, 91}, {99, 88}, {98, 97, 96}, {98, 91}, {98, 91}, {98, 96}, {98, 96}, {91}, {91}, {96}, {96}, {98}, {96}, {97}, {}, {}, {}, {}, {}];
n_opt = 300;
dur = [2, 18, 29, 2, 18, 19, 2, 5, 17, 1, 15, 23, 15, 22, 29, 8, 12, 26, 3, 4, 29, 13, 27, 29, 3, 13, 28, 4, 9, 30, 15, 25, 29, 5, 15, 16, 9, 17, 26, 10, 11, 21, 8, 21, 26, 26, 27, 30, 1, 4, 27, 4, 10, 23, 10, 20, 24, 9, 11, 21, 21, 22, 28, 7, 19, 22, 4, 8, 16, 14, 24, 28, 3, 9, 23, 12, 16, 27, 21, 26, 30, 9, 27, 28, 1, 26, 30, 1, 25, 30, 8, 17, 25, 12, 24, 26, 4, 7, 21, 16, 17, 21, 10, 14, 20, 7, 24, 30, 15, 19, 21, 19, 22, 28, 10, 25, 26, 5, 22, 25, 3, 5, 21, 8, 27, 28, 2, 19, 25, 14, 19, 29, 11, 15, 20, 8, 9, 18, 2, 8, 27, 13, 19, 21, 7, 25, 30, 16, 17, 24, 1, 19, 20, 5, 6, 18, 6, 7, 13, 17, 19, 30, 19, 20, 22, 7, 11, 17, 10, 27, 28, 6, 25, 28, 3, 14, 17, 16, 18, 26, 3, 8, 29, 1, 21, 27, 15, 16, 17, 3, 10, 21, 4, 14, 18, 19, 20, 26, 8, 16, 21, 2, 12, 28, 13, 14, 25, 2, 7, 19, 12, 17, 27, 21, 26, 27, 5, 23, 25, 8, 10, 24, 11, 12, 26, 8, 14, 27, 10, 18, 20, 2, 17, 20, 6, 8, 19, 2, 6, 7, 4, 7, 15, 8, 9, 11, 5, 6, 16, 20, 24, 26, 12, 19, 27, 3, 10, 16, 8, 17, 21, 14, 19, 26, 14, 21, 26, 12, 14, 25, 2, 5, 7, 8, 15, 30, 1, 6, 21, 4, 5, 30, 6, 20, 22, 15, 18, 20, 7, 18, 30, 16, 17, 23, 1, 2, 19, 5, 13, 16];
rreq = [|22, 19, 18, 27, 18, 10, 21, 12, 9, 17, 8, 8, 22, 22, 6, 25, 24, 24, 12, 12, 10, 16, 10, 6, 25, 11, 6, 18, 13, 4, 23, 17, 16, 26, 26, 26, 22, 21, 21, 26, 14, 6, 25, 21, 19, 16, 10, 7, 26, 19, 9, 26, 24, 18, 20, 16, 16, 16, 13, 7, 11, 6, 4, 15, 12, 11, 14, 12, 12, 27, 22, 21, 15, 13, 4, 24, 21, 20, 18, 15, 10, 25, 17, 8, 11, 11, 11, 22, 18, 10, 6, 5, 5, 23, 12, 9, 26, 26, 26, 30, 29, 28, 26, 20, 17, 9, 4, 4, 13, 12, 12, 12, 6, 3, 9, 8, 6, 25, 12, 6, 12, 12, 9, 19, 15, 9, 19, 14, 5, 10, 8, 8, 26, 26, 26, 21, 16, 14, 18, 17, 13, 4, 4, 2, 19, 19, 18, 23, 18, 14, 20, 17, 15, 9, 6, 2, 13, 12, 8, 23, 21, 19, 18, 14, 10, 21, 19, 19, 6, 5, 2, 6, 5, 5, 4, 3, 2, 18, 14, 13, 13, 8, 6, 28, 24, 18, 23, 20, 19, 18, 15, 8, 8, 4, 3, 12, 11, 10, 15, 14, 14, 11, 10, 9, 22, 20, 18, 22, 21, 20, 27, 26, 24, 28, 15, 8, 21, 14, 10, 24, 18, 7, 21, 19, 14, 15, 13, 5, 27, 18, 10, 1, 1, 1, 29, 27, 27, 29, 23, 20, 20, 16, 14, 11, 11, 10, 7, 6, 4, 28, 24, 23, 4, 4, 4, 18, 15, 13, 23, 20, 19, 21, 17, 10, 18, 17, 13, 24, 16, 13, 15, 11, 10, 17, 16, 9, 19, 18, 16, 22, 14, 9, 11, 7, 5, 23, 22, 20, 24, 18, 13, 26, 19, 17, 16, 12, 8, 17, 15, 10
 |27, 24, 22, 11, 6, 5, 5, 2, 2, 26, 24, 22, 17, 13, 12, 16, 10, 3, 21, 20, 16, 12, 9, 7, 8, 8, 5, 21, 18, 18, 27, 20, 13, 27, 23, 21, 6, 4, 4, 12, 12, 12, 22, 20, 17, 19, 15, 7, 22, 21, 20, 23, 22, 22, 1, 1, 1, 20, 14, 11, 23, 20, 12, 18, 9, 2, 26, 21, 15, 15, 12, 9, 7, 7, 6, 11, 11, 10, 17, 14, 14, 2, 2, 2, 27, 25, 18, 26, 18, 17, 24, 20, 15, 11, 11, 10, 19, 18, 18, 26, 14, 11, 27, 26, 26, 28, 23, 22, 29, 25, 24, 17, 16, 16, 21, 17, 4, 30, 29, 27, 26, 12, 11, 26, 24, 23, 17, 16, 15, 15, 13, 12, 29, 26, 26, 10, 10, 9, 15, 11, 8, 11, 10, 10, 17, 14, 7, 16, 13, 9, 26, 16, 5, 18, 17, 17, 13, 8, 7, 21, 20, 19, 22, 14, 12, 29, 21, 17, 15, 11, 6, 21, 18, 15, 12, 10, 5, 12, 11, 9, 2, 1, 1, 25, 22, 20, 27, 11, 10, 9, 8, 7, 8, 7, 4, 22, 19, 9, 13, 13, 10, 15, 11, 4, 26, 22, 18, 28, 25, 23, 2, 2, 1, 10, 8, 7, 15, 13, 12, 22, 21, 17, 8, 6, 4, 17, 9, 5, 23, 21, 18, 21, 17, 13, 25, 24, 22, 9, 5, 2, 16, 12, 11, 18, 15, 14, 22, 9, 6, 25, 13, 8, 22, 20, 18, 24, 21, 18, 24, 22, 22, 15, 13, 10, 15, 8, 6, 1, 1, 1, 20, 18, 5, 22, 18, 4, 24, 23, 18, 22, 22, 22, 27, 25, 24, 16, 8, 8, 25, 12, 7, 18, 16, 12, 16, 11, 3, 9, 9, 6
 |11, 8, 2, 16, 16, 6, 28, 21, 15, 17, 17, 14, 13, 8, 6, 29, 29, 27, 11, 8, 7, 22, 20, 13, 20, 17, 16, 20, 19, 15, 9, 9, 8, 17, 12, 8, 22, 14, 11, 17, 17, 17, 4, 4, 4, 12, 11, 10, 16, 14, 13, 21, 11, 6, 19, 17, 14, 8, 3, 3, 19, 16, 15, 27, 24, 20, 12, 10, 9, 22, 18, 18, 21, 20, 18, 26, 24, 21, 18, 17, 16, 18, 14, 8, 25, 18, 12, 22, 17, 13, 8, 6, 6, 19, 14, 8, 29, 22, 19, 8, 6, 5, 19, 17, 16, 18, 7, 5, 22, 15, 7, 17, 13, 9, 30, 28, 28, 26, 18, 17, 14, 14, 13, 26, 18, 3, 6, 5, 4, 26, 13, 8, 28, 26, 24, 21, 14, 11, 16, 12, 6, 11, 11, 11, 13, 9, 9, 18, 17, 17, 12, 10, 10, 28, 20, 18, 6, 6, 4, 25, 22, 14, 24, 22, 19, 25, 16, 8, 18, 14, 13, 15, 13, 13, 25, 24, 24, 18, 17, 16, 18, 15, 15, 19, 11, 3, 16, 15, 12, 5, 4, 2, 9, 9, 9, 11, 11, 11, 6, 6, 5, 16, 13, 13, 4, 4, 3, 26, 25, 25, 23, 21, 18, 22, 20, 10, 22, 20, 20, 10, 8, 8, 23, 13, 8, 28, 26, 26, 23, 17, 13, 28, 25, 22, 22, 12, 4, 22, 21, 21, 7, 5, 4, 15, 15, 14, 24, 23, 23, 17, 16, 15, 6, 6, 4, 20, 18, 15, 23, 23, 23, 23, 12, 9, 23, 22, 22, 13, 9, 7, 28, 28, 28, 21, 17, 14, 24, 15, 10, 29, 14, 8, 30, 20, 16, 21, 16, 8, 30, 30, 30, 19, 14, 11, 24, 23, 19, 8, 8, 8
 |23, 22, 17, 4, 4, 3, 25, 18, 15, 21, 12, 5, 15, 15, 13, 23, 17, 14, 5, 4, 2, 28, 13, 8, 15, 12, 5, 18, 18, 18, 19, 18, 10, 22, 11, 6, 26, 26, 26, 28, 13, 8, 27, 22, 22, 22, 13, 12, 15, 14, 9, 16, 11, 2, 13, 9, 6, 24, 23, 23, 26, 19, 16, 23, 20, 20, 26, 21, 19, 11, 11, 9, 12, 8, 6, 17, 14, 4, 19, 11, 7, 29, 27, 26, 19, 18, 18, 25, 21, 20, 11, 10, 6, 22, 19, 15, 10, 8, 8, 7, 6, 3, 25, 21, 11, 11, 8, 6, 11, 9, 6, 21, 19, 19, 3, 3, 2, 14, 8, 2, 13, 9, 5, 15, 13, 13, 21, 19, 11, 17, 15, 15, 23, 14, 8, 24, 13, 5, 5, 4, 3, 18, 16, 6, 6, 6, 2, 27, 24, 23, 22, 21, 19, 20, 12, 6, 27, 25, 23, 24, 18, 10, 24, 23, 23, 19, 19, 13, 10, 9, 9, 25, 23, 21, 21, 14, 10, 8, 8, 8, 5, 4, 4, 9, 8, 8, 24, 22, 18, 15, 9, 6, 23, 16, 12, 16, 9, 9, 22, 17, 11, 28, 18, 14, 8, 8, 7, 27, 25, 20, 4, 4, 4, 25, 24, 23, 14, 13, 1, 26, 25, 23, 22, 14, 11, 28, 26, 24, 25, 23, 15, 30, 29, 29, 15, 10, 7, 21, 16, 13, 22, 20, 20, 6, 5, 5, 26, 19, 19, 24, 21, 15, 16, 15, 9, 24, 20, 14, 16, 11, 5, 10, 8, 7, 29, 23, 18, 20, 15, 10, 28, 25, 25, 17, 9, 7, 23, 17, 5, 28, 17, 4, 24, 22, 12, 24, 22, 22, 22, 20, 17, 23, 17, 9, 15, 13, 12, 16, 15, 14
 |17, 8, 3, 11, 7, 4, 27, 25, 21, 28, 28, 28, 18, 17, 15, 10, 9, 3, 20, 20, 20, 8, 8, 8, 10, 5, 2, 18, 18, 18, 17, 16, 16, 8, 6, 6, 22, 20, 18, 22, 20, 19, 4, 2, 2, 21, 16, 9, 14, 12, 3, 26, 21, 18, 22, 17, 13, 22, 16, 13, 15, 13, 12, 23, 18, 9, 27, 19, 18, 18, 14, 9, 24, 18, 12, 21, 21, 21, 10, 9, 9, 17, 10, 7, 12, 6, 1, 22, 10, 3, 14, 9, 8, 27, 25, 24, 17, 15, 12, 10, 6, 5, 26, 11, 2, 14, 8, 3, 17, 14, 12, 10, 9, 8, 17, 14, 8, 18, 15, 6, 24, 21, 15, 9, 4, 3, 18, 14, 13, 14, 13, 13, 25, 14, 12, 15, 13, 5, 17, 15, 6, 25, 15, 7, 24, 20, 17, 22, 12, 10, 19, 14, 8, 27, 22, 13, 10, 5, 2, 25, 20, 18, 9, 8, 5, 19, 19, 6, 24, 21, 20, 29, 28, 27, 19, 16, 14, 11, 10, 6, 14, 13, 11, 17, 15, 15, 13, 7, 4, 28, 27, 27, 23, 19, 14, 23, 11, 4, 29, 27, 27, 25, 12, 9, 25, 19, 12, 25, 24, 22, 24, 22, 22, 23, 15, 9, 17, 13, 11, 25, 18, 14, 15, 10, 8, 17, 16, 8, 19, 13, 7, 7, 7, 7, 23, 9, 8, 25, 24, 20, 27, 13, 3, 13, 12, 10, 12, 10, 9, 16, 14, 13, 24, 14, 13, 26, 25, 25, 22, 13, 11, 17, 14, 10, 18, 9, 5, 27, 14, 11, 19, 16, 16, 24, 16, 6, 25, 15, 13, 8, 7, 6, 5, 4, 2, 14, 14, 11, 23, 12, 11, 25, 24, 24, 23, 19, 8, 14, 9, 5
 |9, 8, 8, 10, 7, 6, 18, 14, 8, 28, 24, 20, 18, 18, 15, 28, 24, 22, 13, 10, 9, 16, 15, 14, 27, 26, 26, 15, 13, 7, 7, 6, 3, 19, 15, 15, 6, 4, 3, 14, 10, 8, 16, 14, 9, 21, 17, 13, 5, 4, 3, 18, 16, 15, 21, 21, 18, 19, 15, 12, 8, 7, 5, 3, 3, 3, 22, 20, 19, 18, 16, 16, 21, 13, 12, 12, 10, 8, 28, 27, 26, 26, 20, 18, 17, 17, 15, 6, 6, 4, 25, 20, 9, 18, 17, 17, 27, 19, 14, 23, 21, 20, 6, 5, 2, 27, 23, 15, 12, 9, 5, 8, 6, 6, 21, 19, 17, 26, 15, 12, 29, 21, 13, 27, 20, 12, 23, 18, 5, 28, 28, 28, 16, 14, 8, 28, 28, 27, 18, 15, 8, 18, 9, 2, 16, 15, 9, 12, 8, 5, 20, 17, 15, 8, 6, 6, 15, 13, 7, 16, 16, 15, 14, 9, 6, 25, 24, 24, 8, 6, 5, 30, 30, 30, 14, 13, 13, 12, 8, 7, 30, 28, 24, 17, 14, 4, 20, 15, 8, 18, 18, 17, 27, 24, 21, 25, 23, 22, 15, 10, 8, 28, 27, 25, 22, 12, 4, 21, 18, 9, 19, 18, 18, 27, 17, 13, 9, 7, 3, 25, 25, 20, 22, 19, 17, 15, 14, 13, 11, 11, 9, 13, 11, 11, 26, 22, 19, 5, 5, 3, 20, 14, 4, 23, 13, 10, 27, 27, 26, 4, 4, 3, 15, 13, 7, 28, 23, 17, 15, 7, 4, 7, 5, 3, 21, 21, 13, 30, 20, 16, 15, 14, 12, 22, 22, 20, 14, 11, 9, 21, 20, 18, 17, 15, 12, 19, 13, 4, 11, 6, 4, 27, 26, 22, 25, 24, 23, 26, 24, 24
 |11, 11, 11, 19, 17, 17, 27, 21, 5, 25, 15, 3, 20, 17, 10, 19, 11, 7, 7, 6, 4, 14, 11, 8, 19, 19, 13, 17, 16, 16, 29, 29, 28, 19, 10, 9, 20, 16, 8, 24, 13, 8, 20, 20, 20, 24, 24, 23, 22, 22, 22, 10, 8, 7, 27, 14, 7, 22, 18, 15, 19, 15, 14, 6, 6, 6, 24, 11, 8, 20, 13, 7, 29, 26, 24, 16, 13, 9, 12, 8, 2, 11, 10, 9, 18, 14, 9, 23, 21, 21, 25, 22, 19, 13, 12, 6, 21, 17, 9, 24, 17, 17, 16, 9, 8, 8, 3, 2, 15, 15, 8, 11, 10, 8, 29, 26, 25, 22, 15, 11, 9, 8, 6, 25, 24, 24, 15, 9, 6, 7, 5, 3, 26, 20, 15, 25, 21, 10, 16, 15, 8, 25, 19, 16, 29, 28, 28, 3, 2, 1, 17, 17, 17, 27, 23, 16, 22, 11, 10, 13, 12, 12, 18, 13, 11, 10, 9, 9, 26, 12, 11, 23, 21, 20, 16, 10, 8, 25, 23, 20, 24, 24, 24, 17, 11, 3, 27, 22, 21, 20, 17, 7, 22, 19, 11, 24, 20, 19, 16, 15, 15, 25, 16, 9, 2, 2, 2, 15, 13, 10, 19, 17, 13, 27, 19, 15, 18, 16, 15, 25, 22, 18, 20, 18, 15, 19, 13, 5, 28, 20, 16, 21, 17, 12, 25, 15, 7, 9, 3, 2, 14, 13, 11, 14, 12, 10, 15, 14, 12, 18, 18, 18, 17, 13, 6, 23, 13, 9, 20, 18, 17, 15, 13, 11, 18, 14, 10, 15, 10, 9, 14, 12, 11, 11, 8, 8, 24, 15, 9, 19, 19, 19, 23, 21, 17, 19, 18, 12, 25, 23, 20, 26, 17, 8, 26, 22, 18, 15, 10, 4
 |17, 16, 15, 22, 13, 9, 20, 11, 7, 25, 16, 14, 7, 3, 1, 20, 15, 11, 4, 3, 3, 18, 16, 14, 19, 18, 18, 28, 28, 27, 24, 19, 16, 12, 9, 9, 12, 7, 4, 19, 16, 6, 18, 16, 16, 21, 10, 5, 19, 15, 8, 17, 16, 11, 22, 12, 8, 17, 14, 7, 19, 13, 10, 14, 10, 5, 17, 13, 12, 21, 16, 15, 18, 12, 7, 19, 16, 15, 17, 14, 10, 22, 20, 20, 19, 15, 11, 25, 24, 24, 23, 23, 22, 14, 12, 10, 21, 17, 8, 7, 5, 3, 18, 15, 11, 6, 4, 2, 24, 21, 20, 23, 16, 5, 15, 12, 11, 27, 26, 24, 23, 21, 20, 20, 19, 18, 13, 12, 9, 14, 13, 13, 19, 11, 5, 13, 13, 13, 23, 15, 9, 12, 10, 6, 19, 17, 17, 30, 24, 22, 21, 15, 6, 10, 10, 6, 17, 16, 16, 17, 17, 17, 30, 16, 11, 28, 23, 20, 6, 6, 6, 7, 3, 2, 10, 8, 4, 8, 7, 7, 14, 14, 14, 23, 16, 11, 20, 19, 19, 18, 16, 14, 24, 17, 17, 12, 11, 11, 12, 11, 10, 20, 17, 13, 21, 18, 14, 27, 19, 16, 8, 7, 5, 14, 14, 14, 18, 16, 14, 18, 16, 16, 3, 3, 3, 26, 18, 14, 22, 15, 11, 15, 9, 3, 25, 20, 19, 24, 23, 23, 15, 10, 7, 24, 18, 11, 14, 11, 9, 22, 20, 15, 12, 10, 9, 23, 16, 14, 13, 11, 9, 21, 16, 12, 21, 16, 10, 20, 11, 8, 12, 8, 4, 21, 14, 6, 20, 11, 6, 28, 21, 17, 26, 12, 11, 24, 19, 17, 11, 9, 8, 21, 18, 13, 20, 18, 15, 28, 22, 19|];